p cnf 141 429
1 0
2 0
-3 0
4 0
5 0
-6 0
-1 -4 7 0
1 -7 0
4 -7 0
-1 -5 8 0
1 -8 0
5 -8 0
-1 -6 9 0
1 -9 0
6 -9 0
-2 -4 10 0
2 -10 0
4 -10 0
-2 -5 11 0
2 -11 0
5 -11 0
-2 -6 12 0
2 -12 0
6 -12 0
-3 -4 13 0
3 -13 0
4 -13 0
-3 -5 14 0
3 -14 0
5 -14 0
-3 -6 15 0
3 -15 0
6 -15 0
-16 0
-17 0
-18 0
-19 0
-20 0
-21 0
-22 0
-23 0
-24 0
-31 0
-38 0
-39 0
-40 0
-41 0
-42 0
-43 0
7 38 -44 0
-7 -38 -44 0
7 -38 44 0
-7 38 44 0
44 31 -25 0
-44 -31 -25 0
44 -31 25 0
-44 31 25 0
7 -45 0
38 -45 0
-7 -38 45 0
7 -46 0
31 -46 0
-7 -31 46 0
38 -47 0
31 -47 0
-38 -31 47 0
-32 45 46 47 0
32 -45 0
32 -46 0
32 -47 0
8 39 -48 0
-8 -39 -48 0
8 -39 48 0
-8 39 48 0
48 32 -26 0
-48 -32 -26 0
48 -32 26 0
-48 32 26 0
8 -49 0
39 -49 0
-8 -39 49 0
8 -50 0
32 -50 0
-8 -32 50 0
39 -51 0
32 -51 0
-39 -32 51 0
-33 49 50 51 0
33 -49 0
33 -50 0
33 -51 0
9 40 -52 0
-9 -40 -52 0
9 -40 52 0
-9 40 52 0
52 33 -27 0
-52 -33 -27 0
52 -33 27 0
-52 33 27 0
9 -53 0
40 -53 0
-9 -40 53 0
9 -54 0
33 -54 0
-9 -33 54 0
40 -55 0
33 -55 0
-40 -33 55 0
-34 53 54 55 0
34 -53 0
34 -54 0
34 -55 0
16 41 -56 0
-16 -41 -56 0
16 -41 56 0
-16 41 56 0
56 34 -28 0
-56 -34 -28 0
56 -34 28 0
-56 34 28 0
16 -57 0
41 -57 0
-16 -41 57 0
16 -58 0
34 -58 0
-16 -34 58 0
41 -59 0
34 -59 0
-41 -34 59 0
-35 57 58 59 0
35 -57 0
35 -58 0
35 -59 0
17 42 -60 0
-17 -42 -60 0
17 -42 60 0
-17 42 60 0
60 35 -29 0
-60 -35 -29 0
60 -35 29 0
-60 35 29 0
17 -61 0
42 -61 0
-17 -42 61 0
17 -62 0
35 -62 0
-17 -35 62 0
42 -63 0
35 -63 0
-42 -35 63 0
-36 61 62 63 0
36 -61 0
36 -62 0
36 -63 0
18 43 -64 0
-18 -43 -64 0
18 -43 64 0
-18 43 64 0
64 36 -30 0
-64 -36 -30 0
64 -36 30 0
-64 36 30 0
18 -65 0
43 -65 0
-18 -43 65 0
18 -66 0
36 -66 0
-18 -36 66 0
43 -67 0
36 -67 0
-43 -36 67 0
-37 65 66 67 0
37 -65 0
37 -66 0
37 -67 0
-74 0
19 25 -81 0
-19 -25 -81 0
19 -25 81 0
-19 25 81 0
81 74 -68 0
-81 -74 -68 0
81 -74 68 0
-81 74 68 0
19 -82 0
25 -82 0
-19 -25 82 0
19 -83 0
74 -83 0
-19 -74 83 0
25 -84 0
74 -84 0
-25 -74 84 0
-75 82 83 84 0
75 -82 0
75 -83 0
75 -84 0
10 26 -85 0
-10 -26 -85 0
10 -26 85 0
-10 26 85 0
85 75 -69 0
-85 -75 -69 0
85 -75 69 0
-85 75 69 0
10 -86 0
26 -86 0
-10 -26 86 0
10 -87 0
75 -87 0
-10 -75 87 0
26 -88 0
75 -88 0
-26 -75 88 0
-76 86 87 88 0
76 -86 0
76 -87 0
76 -88 0
11 27 -89 0
-11 -27 -89 0
11 -27 89 0
-11 27 89 0
89 76 -70 0
-89 -76 -70 0
89 -76 70 0
-89 76 70 0
11 -90 0
27 -90 0
-11 -27 90 0
11 -91 0
76 -91 0
-11 -76 91 0
27 -92 0
76 -92 0
-27 -76 92 0
-77 90 91 92 0
77 -90 0
77 -91 0
77 -92 0
12 28 -93 0
-12 -28 -93 0
12 -28 93 0
-12 28 93 0
93 77 -71 0
-93 -77 -71 0
93 -77 71 0
-93 77 71 0
12 -94 0
28 -94 0
-12 -28 94 0
12 -95 0
77 -95 0
-12 -77 95 0
28 -96 0
77 -96 0
-28 -77 96 0
-78 94 95 96 0
78 -94 0
78 -95 0
78 -96 0
20 29 -97 0
-20 -29 -97 0
20 -29 97 0
-20 29 97 0
97 78 -72 0
-97 -78 -72 0
97 -78 72 0
-97 78 72 0
20 -98 0
29 -98 0
-20 -29 98 0
20 -99 0
78 -99 0
-20 -78 99 0
29 -100 0
78 -100 0
-29 -78 100 0
-79 98 99 100 0
79 -98 0
79 -99 0
79 -100 0
21 30 -101 0
-21 -30 -101 0
21 -30 101 0
-21 30 101 0
101 79 -73 0
-101 -79 -73 0
101 -79 73 0
-101 79 73 0
21 -102 0
30 -102 0
-21 -30 102 0
21 -103 0
79 -103 0
-21 -79 103 0
30 -104 0
79 -104 0
-30 -79 104 0
-80 102 103 104 0
80 -102 0
80 -103 0
80 -104 0
-111 0
22 68 -118 0
-22 -68 -118 0
22 -68 118 0
-22 68 118 0
118 111 -105 0
-118 -111 -105 0
118 -111 105 0
-118 111 105 0
22 -119 0
68 -119 0
-22 -68 119 0
22 -120 0
111 -120 0
-22 -111 120 0
68 -121 0
111 -121 0
-68 -111 121 0
-112 119 120 121 0
112 -119 0
112 -120 0
112 -121 0
23 69 -122 0
-23 -69 -122 0
23 -69 122 0
-23 69 122 0
122 112 -106 0
-122 -112 -106 0
122 -112 106 0
-122 112 106 0
23 -123 0
69 -123 0
-23 -69 123 0
23 -124 0
112 -124 0
-23 -112 124 0
69 -125 0
112 -125 0
-69 -112 125 0
-113 123 124 125 0
113 -123 0
113 -124 0
113 -125 0
13 70 -126 0
-13 -70 -126 0
13 -70 126 0
-13 70 126 0
126 113 -107 0
-126 -113 -107 0
126 -113 107 0
-126 113 107 0
13 -127 0
70 -127 0
-13 -70 127 0
13 -128 0
113 -128 0
-13 -113 128 0
70 -129 0
113 -129 0
-70 -113 129 0
-114 127 128 129 0
114 -127 0
114 -128 0
114 -129 0
14 71 -130 0
-14 -71 -130 0
14 -71 130 0
-14 71 130 0
130 114 -108 0
-130 -114 -108 0
130 -114 108 0
-130 114 108 0
14 -131 0
71 -131 0
-14 -71 131 0
14 -132 0
114 -132 0
-14 -114 132 0
71 -133 0
114 -133 0
-71 -114 133 0
-115 131 132 133 0
115 -131 0
115 -132 0
115 -133 0
15 72 -134 0
-15 -72 -134 0
15 -72 134 0
-15 72 134 0
134 115 -109 0
-134 -115 -109 0
134 -115 109 0
-134 115 109 0
15 -135 0
72 -135 0
-15 -72 135 0
15 -136 0
115 -136 0
-15 -115 136 0
72 -137 0
115 -137 0
-72 -115 137 0
-116 135 136 137 0
116 -135 0
116 -136 0
116 -137 0
24 73 -138 0
-24 -73 -138 0
24 -73 138 0
-24 73 138 0
138 116 -110 0
-138 -116 -110 0
138 -116 110 0
-138 116 110 0
24 -139 0
73 -139 0
-24 -73 139 0
24 -140 0
116 -140 0
-24 -116 140 0
73 -141 0
116 -141 0
-73 -116 141 0
-117 139 140 141 0
117 -139 0
117 -140 0
117 -141 0
